n_res = 4;
rc = [ 0, 0, 0, 0 ];
n_tasks = 30;
d = [ 5, 7, 4, 5, 4, 4, 4, 9, 10, 4, 5, 2, 1, 10, 6, 1, 8, 1, 9, 6, 1, 1, 8, 8, 3, 3, 6, 10, 5, 5 ];
rr = [| 0, 0, 0, 0, 0, 0, 0, 0, 0, 0, 0, 0, 0, 0, 0, 0, 0, 0, 0, 0, 0, 0, 0, 0, 0, 0, 0, 0, 0, 0
      | 0, 0, 0, 0, 0, 0, 0, 0, 0, 0, 0, 0, 0, 0, 0, 0, 0, 0, 0, 0, 0, 0, 0, 0, 0, 0, 0, 0, 0, 0
      | 0, 0, 0, 0, 0, 0, 0, 0, 0, 0, 0, 0, 0, 0, 0, 0, 0, 0, 0, 0, 0, 0, 0, 0, 0, 0, 0, 0, 0, 0
      | 0, 0, 0, 0, 0, 0, 0, 0, 0, 0, 0, 0, 0, 0, 0, 0, 0, 0, 0, 0, 0, 0, 0, 0, 0, 0, 0, 0, 0, 0 |];
suc = [ { 5, 12, 14 },
       { 4, 7, 10 },
       { 11, 17, 23 },
       { 6, 26 },
       { 29 },
       { 9 },
       { 8 },
       { 19 },
       { 15 },
       { 16, 30 },
       { 21 },
       { 13, 15, 18 },
       { 29 },
       { 19, 22, 24 },
       { 25 },
       { 17, 28 },
       { 29 },
       { 21, 27 },
       { 20 },
       { 25 },
       { 30 },
       { 26 },
       { 24 },
       { 27 },
       { 27 },
       { 28 },
       { 28, 30 },
       {  },
       {  },
       {  } ];
